12° run output:
{
    "Function": "kroA500.tsp",
    "Problem dimension": [
        265,
        349,
        293,
        405,
        190,
        114,
        212,
        6,
        202,
        221,
        154,
        277,
        290,
        170,
        189,
        191,
        111,
        380,
        66,
        70,
        335,
        220,
        259,
        446,
        244,
        76,
        42,
        333,
        279,
        467,
        95,
        487,
        9,
        493,
        192,
        261,
        85,
        157,
        388,
        213,
        223,
        308,
        92,
        59,
        216,
        472,
        51,
        478,
        475,
        16,
        345,
        267,
        300,
        303,
        447,
        13,
        449,
        91,
        358,
        22,
        313,
        162,
        441,
        82,
        37,
        20,
        395,
        110,
        364,
        101,
        437,
        276,
        83,
        5,
        108,
        89,
        399,
        496,
        188,
        389,
        29,
        204,
        67,
        411,
        419,
        459,
        417,
        104,
        331,
        120,
        443,
        258,
        131,
        292,
        384,
        324,
        408,
        138,
        353,
        319,
        396,
        473,
        297,
        217,
        4,
        409,
        153,
        274,
        167,
        127,
        257,
        463,
        139,
        312,
        275,
        393,
        249,
        413,
        339,
        315,
        340,
        116,
        230,
        386,
        129,
        294,
        38,
        370,
        365,
        3,
        271,
        141,
        187,
        121,
        266,
        43,
        383,
        107,
        426,
        352,
        79,
        169,
        15,
        262,
        10,
        62,
        207,
        272,
        351,
        442,
        415,
        341,
        260,
        254,
        494,
        376,
        90,
        378,
        84,
        420,
        48,
        196,
        86,
        392,
        185,
        158,
        476,
        28,
        54,
        140,
        0,
        123,
        103,
        317,
        78,
        350,
        462,
        180,
        423,
        452,
        229,
        72,
        209,
        247,
        374,
        33,
        372,
        73,
        485,
        425,
        242,
        385,
        314,
        149,
        227,
        458,
        311,
        255,
        483,
        430,
        429,
        147,
        362,
        34,
        134,
        418,
        106,
        57,
        382,
        144,
        291,
        427,
        124,
        174,
        39,
        52,
        60,
        205,
        298,
        215,
        251,
        47,
        98,
        287,
        390,
        126,
        195,
        450,
        391,
        25,
        332,
        286,
        115,
        438,
        295,
        451,
        148,
        81,
        63,
        343,
        361,
        206,
        278,
        71,
        130,
        119,
        284,
        49,
        330,
        69,
        414,
        19,
        183,
        457,
        30,
        168,
        281,
        75,
        222,
        435,
        346,
        416,
        491,
        231,
        12,
        218,
        296,
        436,
        460,
        61,
        177,
        199,
        172,
        88,
        373,
        371,
        179,
        35,
        96,
        273,
        182,
        421,
        344,
        44,
        26,
        432,
        248,
        225,
        401,
        236,
        133,
        53,
        27,
        342,
        305,
        41,
        14,
        235,
        492,
        369,
        431,
        166,
        326,
        46,
        58,
        288,
        239,
        178,
        268,
        175,
        100,
        232,
        322,
        243,
        407,
        327,
        40,
        143,
        329,
        402,
        176,
        31,
        461,
        464,
        198,
        448,
        186,
        486,
        465,
        1,
        135,
        481,
        387,
        302,
        499,
        490,
        200,
        264,
        64,
        128,
        87,
        320,
        347,
        289,
        403,
        304,
        226,
        466,
        112,
        228,
        299,
        455,
        354,
        160,
        18,
        439,
        321,
        122,
        470,
        152,
        306,
        394,
        285,
        150,
        454,
        474,
        77,
        173,
        280,
        456,
        146,
        23,
        377,
        50,
        479,
        379,
        32,
        338,
        194,
        363,
        132,
        74,
        256,
        80,
        184,
        253,
        422,
        55,
        336,
        375,
        246,
        482,
        252,
        8,
        434,
        250,
        367,
        263,
        310,
        181,
        137,
        444,
        381,
        497,
        208,
        424,
        488,
        21,
        105,
        237,
        282,
        118,
        498,
        11,
        17,
        241,
        366,
        368,
        214,
        428,
        355,
        2,
        234,
        203,
        480,
        65,
        356,
        323,
        156,
        469,
        337,
        400,
        406,
        404,
        68,
        219,
        233,
        7,
        102,
        161,
        117,
        360,
        328,
        477,
        94,
        316,
        240,
        211,
        155,
        440,
        125,
        245,
        325,
        348,
        171,
        359,
        151,
        283,
        163,
        468,
        484,
        238,
        145,
        410,
        24,
        197,
        99,
        471,
        334,
        113,
        309,
        56,
        159,
        453,
        164,
        109,
        397,
        270,
        398,
        45,
        269,
        193,
        318,
        489,
        445,
        165,
        433,
        36,
        97,
        210,
        495,
        357,
        201,
        224,
        301,
        307,
        142,
        93,
        412,
        136
    ],
    "Global Optimum": 0,
    "Algorithm": "Genetic algorithm",
    "Parameters": {
        "population": 30,
        "offspring": 30,
        "mutation probability": 0.002,
        "crossover probability": 0.9
    },
    "Fitness": 603348,
    "Solution": [
        265,
        349,
        293,
        405,
        190,
        114,
        212,
        6,
        202,
        221,
        154,
        277,
        290,
        170,
        189,
        191,
        111,
        380,
        66,
        70,
        335,
        220,
        259,
        446,
        244,
        76,
        42,
        333,
        279,
        467,
        95,
        487,
        9,
        493,
        192,
        261,
        85,
        157,
        388,
        213,
        223,
        308,
        92,
        59,
        216,
        472,
        51,
        478,
        475,
        16,
        345,
        267,
        300,
        303,
        447,
        13,
        449,
        91,
        358,
        22,
        313,
        162,
        441,
        82,
        37,
        20,
        395,
        110,
        364,
        101,
        437,
        276,
        83,
        5,
        108,
        89,
        399,
        496,
        188,
        389,
        29,
        204,
        67,
        411,
        419,
        459,
        417,
        104,
        331,
        120,
        443,
        258,
        131,
        292,
        384,
        324,
        408,
        138,
        353,
        319,
        396,
        473,
        297,
        217,
        4,
        409,
        153,
        274,
        167,
        127,
        257,
        463,
        139,
        312,
        275,
        393,
        249,
        413,
        339,
        315,
        340,
        116,
        230,
        386,
        129,
        294,
        38,
        370,
        365,
        3,
        271,
        141,
        187,
        121,
        266,
        43,
        383,
        107,
        426,
        352,
        79,
        169,
        15,
        262,
        10,
        62,
        207,
        272,
        351,
        442,
        415,
        341,
        260,
        254,
        494,
        376,
        90,
        378,
        84,
        420,
        48,
        196,
        86,
        392,
        185,
        158,
        476,
        28,
        54,
        140,
        0,
        123,
        103,
        317,
        78,
        350,
        462,
        180,
        423,
        452,
        229,
        72,
        209,
        247,
        374,
        33,
        372,
        73,
        485,
        425,
        242,
        385,
        314,
        149,
        227,
        458,
        311,
        255,
        483,
        430,
        429,
        147,
        362,
        34,
        134,
        418,
        106,
        57,
        382,
        144,
        291,
        427,
        124,
        174,
        39,
        52,
        60,
        205,
        298,
        215,
        251,
        47,
        98,
        287,
        390,
        126,
        195,
        450,
        391,
        25,
        332,
        286,
        115,
        438,
        295,
        451,
        148,
        81,
        63,
        343,
        361,
        206,
        278,
        71,
        130,
        119,
        284,
        49,
        330,
        69,
        414,
        19,
        183,
        457,
        30,
        168,
        281,
        75,
        222,
        435,
        346,
        416,
        491,
        231,
        12,
        218,
        296,
        436,
        460,
        61,
        177,
        199,
        172,
        88,
        373,
        371,
        179,
        35,
        96,
        273,
        182,
        421,
        344,
        44,
        26,
        432,
        248,
        225,
        401,
        236,
        133,
        53,
        27,
        342,
        305,
        41,
        14,
        235,
        492,
        369,
        431,
        166,
        326,
        46,
        58,
        288,
        239,
        178,
        268,
        175,
        100,
        232,
        322,
        243,
        407,
        327,
        40,
        143,
        329,
        402,
        176,
        31,
        461,
        464,
        198,
        448,
        186,
        486,
        465,
        1,
        135,
        481,
        387,
        302,
        499,
        490,
        200,
        264,
        64,
        128,
        87,
        320,
        347,
        289,
        403,
        304,
        226,
        466,
        112,
        228,
        299,
        455,
        354,
        160,
        18,
        439,
        321,
        122,
        470,
        152,
        306,
        394,
        285,
        150,
        454,
        474,
        77,
        173,
        280,
        456,
        146,
        23,
        377,
        50,
        479,
        379,
        32,
        338,
        194,
        363,
        132,
        74,
        256,
        80,
        184,
        253,
        422,
        55,
        336,
        375,
        246,
        482,
        252,
        8,
        434,
        250,
        367,
        263,
        310,
        181,
        137,
        444,
        381,
        497,
        208,
        424,
        488,
        21,
        105,
        237,
        282,
        118,
        498,
        11,
        17,
        241,
        366,
        368,
        214,
        428,
        355,
        2,
        234,
        203,
        480,
        65,
        356,
        323,
        156,
        469,
        337,
        400,
        406,
        404,
        68,
        219,
        233,
        7,
        102,
        161,
        117,
        360,
        328,
        477,
        94,
        316,
        240,
        211,
        155,
        440,
        125,
        245,
        325,
        348,
        171,
        359,
        151,
        283,
        163,
        468,
        484,
        238,
        145,
        410,
        24,
        197,
        99,
        471,
        334,
        113,
        309,
        56,
        159,
        453,
        164,
        109,
        397,
        270,
        398,
        45,
        269,
        193,
        318,
        489,
        445,
        165,
        433,
        36,
        97,
        210,
        495,
        357,
        201,
        224,
        301,
        307,
        142,
        93,
        412,
        136
    ],
    "Nb of functions evaluations": 200010,
    "Computational time in seconds": 803.0120599269867,
    "Stopping criterion in evaluations": 200000
}